NAME          
ROWS
 N  OBJ
 L  c1
 L  c2
 L  c3
 L  c4
 L  c5
COLUMNS
    MARKER    'MARKER'                 'INTORG'
    x[1]      c1        193
    x[1]      c2        249
    x[1]      c3        661
    x[1]      c4        4
    x[1]      c5        454
    x[1]      OBJ       -606
    x[2]      c1        812
    x[2]      c2        802
    x[2]      c3        209
    x[2]      c4        532
    x[2]      c5        681
    x[2]      OBJ       -607
    x[3]      c1        508
    x[3]      c2        158
    x[3]      c3        523
    x[3]      c4        925
    x[3]      c5        985
    x[3]      OBJ       -396
    x[4]      c1        990
    x[4]      c2        188
    x[4]      c3        183
    x[4]      c4        723
    x[4]      c5        594
    x[4]      OBJ       -819
    x[5]      c1        365
    x[5]      c2        5
    x[5]      c3        60
    x[5]      c4        185
    x[5]      c5        445
    x[5]      OBJ       -436
    x[6]      c1        769
    x[6]      c2        107
    x[6]      c3        974
    x[6]      c4        40
    x[6]      c5        748
    x[6]      OBJ       -860
    x[7]      c1        537
    x[7]      c2        777
    x[7]      c3        868
    x[7]      c4        806
    x[7]      c5        243
    x[7]      OBJ       -453
    x[8]      c1        379
    x[8]      c2        242
    x[8]      c3        746
    x[8]      c4        309
    x[8]      c5        736
    x[8]      OBJ       -926
    x[9]      c1        544
    x[9]      c2        313
    x[9]      c3        983
    x[9]      c4        562
    x[9]      c5        480
    x[9]      OBJ       -679
    x[10]     c1        855
    x[10]     c2        177
    x[10]     c3        240
    x[10]     c4        559
    x[10]     c5        833
    x[10]     OBJ       -286
    x[11]     c1        763
    x[11]     c2        223
    x[11]     c3        226
    x[11]     c4        402
    x[11]     c5        462
    x[11]     OBJ       -902
    x[12]     c1        923
    x[12]     c2        300
    x[12]     c3        830
    x[12]     c4        801
    x[12]     c5        544
    x[12]     OBJ       -330
    x[13]     c1        416
    x[13]     c2        744
    x[13]     c3        438
    x[13]     c4        282
    x[13]     c5        711
    x[13]     OBJ       -911
    x[14]     c1        292
    x[14]     c2        475
    x[14]     c3        138
    x[14]     c4        626
    x[14]     c5        585
    x[14]     OBJ       -989
    x[15]     c1        1000
    x[15]     c2        719
    x[15]     c3        23
    x[15]     c4        8
    x[15]     c5        837
    x[15]     OBJ       -723
    x[16]     c1        913
    x[16]     c2        863
    x[16]     c3        151
    x[16]     c4        48
    x[16]     c5        671
    x[16]     OBJ       -872
    x[17]     c1        120
    x[17]     c2        909
    x[17]     c3        554
    x[17]     c4        715
    x[17]     c5        493
    x[17]     OBJ       -589
    x[18]     c1        551
    x[18]     c2        419
    x[18]     c3        440
    x[18]     c4        479
    x[18]     c5        902
    x[18]     OBJ       -181
    x[19]     c1        154
    x[19]     c2        644
    x[19]     c3        605
    x[19]     c4        9
    x[19]     c5        46
    x[19]     OBJ       -995
    x[20]     c1        6
    x[20]     c2        728
    x[20]     c3        931
    x[20]     c4        851
    x[20]     c5        905
    x[20]     OBJ       -76
    x[21]     c1        870
    x[21]     c2        360
    x[21]     c3        906
    x[21]     c4        935
    x[21]     c5        664
    x[21]     OBJ       -846
    x[22]     c1        997
    x[22]     c2        748
    x[22]     c3        653
    x[22]     c4        216
    x[22]     c5        91
    x[22]     OBJ       -302
    x[23]     c1        582
    x[23]     c2        6
    x[23]     c3        2
    x[23]     c4        349
    x[23]     c5        797
    x[23]     OBJ       -878
    x[24]     c1        754
    x[24]     c2        1
    x[24]     c3        927
    x[24]     c4        855
    x[24]     c5        887
    x[24]     OBJ       -97
    x[25]     c1        114
    x[25]     c2        95
    x[25]     c3        194
    x[25]     c4        861
    x[25]     c5        418
    x[25]     OBJ       -926
    x[26]     c1        712
    x[26]     c2        739
    x[26]     c3        432
    x[26]     c4        470
    x[26]     c5        93
    x[26]     OBJ       -24
    x[27]     c1        146
    x[27]     c2        612
    x[27]     c3        978
    x[27]     c4        542
    x[27]     c5        540
    x[27]     OBJ       -579
    x[28]     c1        265
    x[28]     c2        607
    x[28]     c3        389
    x[28]     c4        331
    x[28]     c5        339
    x[28]     OBJ       -838
    x[29]     c1        562
    x[29]     c2        913
    x[29]     c3        703
    x[29]     c4        287
    x[29]     c5        956
    x[29]     OBJ       -375
    x[30]     c1        686
    x[30]     c2        917
    x[30]     c3        293
    x[30]     c4        473
    x[30]     c5        323
    x[30]     OBJ       -367
    x[31]     c1        637
    x[31]     c2        674
    x[31]     c3        80
    x[31]     c4        760
    x[31]     c5        103
    x[31]     OBJ       -91
    x[32]     c1        693
    x[32]     c2        376
    x[32]     c3        680
    x[32]     c4        206
    x[32]     c5        677
    x[32]     OBJ       -25
    x[33]     c1        504
    x[33]     c2        936
    x[33]     c3        284
    x[33]     c4        343
    x[33]     c5        977
    x[33]     OBJ       -829
    x[34]     c1        58
    x[34]     c2        787
    x[34]     c3        769
    x[34]     c4        113
    x[34]     c5        91
    x[34]     OBJ       -769
    x[35]     c1        26
    x[35]     c2        905
    x[35]     c3        306
    x[35]     c4        865
    x[35]     c5        148
    x[35]     OBJ       -985
RHS
    rhs       c1        9348
    rhs       c2        8859
    rhs       c3        8690
    rhs       c4        8236
    rhs       c5        9730
RANGES
BOUNDS
 BV bounds    x[1]
 BV bounds    x[2]
 BV bounds    x[3]
 BV bounds    x[4]
 BV bounds    x[5]
 BV bounds    x[6]
 BV bounds    x[7]
 BV bounds    x[8]
 BV bounds    x[9]
 BV bounds    x[10]
 BV bounds    x[11]
 BV bounds    x[12]
 BV bounds    x[13]
 BV bounds    x[14]
 BV bounds    x[15]
 BV bounds    x[16]
 BV bounds    x[17]
 BV bounds    x[18]
 BV bounds    x[19]
 BV bounds    x[20]
 BV bounds    x[21]
 BV bounds    x[22]
 BV bounds    x[23]
 BV bounds    x[24]
 BV bounds    x[25]
 BV bounds    x[26]
 BV bounds    x[27]
 BV bounds    x[28]
 BV bounds    x[29]
 BV bounds    x[30]
 BV bounds    x[31]
 BV bounds    x[32]
 BV bounds    x[33]
 BV bounds    x[34]
 BV bounds    x[35]
ENDATA
